\ LP format - for model browsing. Use MPS format to capture full model detail.
Maximize
  x_1 + 4 x_2 + 9 x_3 + 10 x_4 + 9 x_5 + x_6 + 2 x_7 + 4 x_8 + 2 x_9
   + 10 x_10 + 7 x_11 + x_12 + 5 x_13 + x_14 + 8 x_15 + 5 x_16 + x_17
   + 9 x_18 + 10 x_19 + 6 x_20
Subject To
 C_1: x_2 + 6 x_4 + 6 x_5 + 5 x_7 + 6 x_11 + 5 x_15 + 10 x_17 + 7 x_18
   + 5 x_20 <= 25
 C_2: 8 x_1 + 6 x_5 + 9 x_8 + 3 x_10 + 2 x_11 + 2 x_12 + x_13 + 5 x_14
   + x_15 + 2 x_18 + 8 x_20 <= 23
 C_3: x_2 + 2 x_3 + 2 x_4 + 6 x_5 + 5 x_8 + 6 x_10 + 5 x_12 + 9 x_14
   + 9 x_15 + 5 x_18 + 4 x_19 <= 27
 C_4: 6 x_1 + 7 x_3 + 7 x_4 + 5 x_8 + 4 x_11 + 5 x_12 + 6 x_14 + 4 x_16
   + 10 x_19 + 10 x_20 <= 32
 C_5: 5 x_2 + 3 x_3 + 9 x_4 + 6 x_5 + 5 x_6 + 2 x_8 + 3 x_9 + 10 x_10
   + 6 x_14 + 9 x_17 + 7 x_20 <= 32
 C_6: 3 x_1 + 10 x_2 + 8 x_7 + 2 x_9 + 7 x_11 + 4 x_16 + 10 x_17 + 9 x_18
   + 3 x_19 <= 28
 C_7: x_1 + 8 x_2 + 9 x_5 + 10 x_6 + 5 x_7 + 8 x_9 + 4 x_10 + 3 x_13
   + 8 x_14 + 9 x_16 + 5 x_17 + 5 x_18 + 6 x_19 + 3 x_20 <= 42
 C_8: 8 x_1 + 8 x_3 + 4 x_6 + 7 x_7 + 2 x_9 + 5 x_10 + 10 x_11 + 2 x_12
   + 10 x_13 + 6 x_15 + 3 x_16 <= 32
 C_9: x_2 + x_4 + 5 x_5 + 7 x_8 + 4 x_10 + 5 x_12 + 2 x_13 + 2 x_14
   + 2 x_15 + 7 x_16 + 6 x_18 + 10 x_19 + 6 x_20 <= 29
 C_10: 4 x_1 + 9 x_3 + 5 x_8 + 8 x_11 + x_13 + 6 x_17 + 4 x_19 <= 18
Bounds
Binaries
 x_1 x_2 x_3 x_4 x_5 x_6 x_7 x_8 x_9 x_10 x_11 x_12 x_13 x_14 x_15 x_16
 x_17 x_18 x_19 x_20
End
